42756
47,48,50,110,109,108,106,107,111,99,95,96,97,102,159,158,156,98,88,94,93,92,87,86,83,84,85,67,68,74,75,76,77,78,79,80,82,81,90,89,91,157,162,166,161,160,163,169,164,165,172,173,171,135,170,134,133,136,186,175,176,177,174,178,180,181,179,182,183,195,196,202,201,200,199,197,152,153,155,154,146,147,148,149,150,151,192,191,198,194,193,189,188,190,187,185,184,141,140,145,144,25,24,23,22,29,27,26,21,19,11,12,13,10,18,17,9,7,6,8,5,4,2,1,3,16,14,15,20,33,34,31,32,30,51,69,70,71,72,73,64,65,66,63,62,61,60,59,58,57,54,55,52,53,56,43,35,36,37,28,127,128,137,138,142,143,139,132,126,125,167,168,117,116,115,114,101,100,112,113,122,121,119,120,124,123,39,131,129,130,38,118,40,104,105,103,41,42,44,45,46,49,47
